17	4
28	18	23	21	
0	0	0	0	0	3	2	3	4	
10	0	9	10	0	3	5	7	10	
5	4	0	0	9	3	6	8	13	
2	8	0	0	0	3	6	7	15	
2	6	3	5	0	3	12	16	17	
100	0	0	4	0	3	12	17	17	
250	0	4	7	0	3	9	11	14	
75	0	5	8	10	3	10	17	17	
150	9	9	0	0	2	17	17	
250	0	9	0	5	3	15	17	17	
150	6	0	6	0	3	17	17	17	
100	5	0	0	7	2	17	17	
8	0	0	0	6	3	17	17	17	
4	0	8	6	7	3	17	17	17	
8	1	1	2	2	3	17	17	17	
10	0	0	0	3	3	17	17	17	
0	0	0	0	0	0	
